instances/ampl_instances/ss_inst_8b_100n.dat
param set_len = 100;
param target := 5883;
set values := 76, 246, 134, 103, 212, 1, 83, 232, 176, 181, 27, 61, 144, 69, 155, 171, 114, 14, 69, 109, 96, 132, 124, 162, 227, 104, 123, 234, 95, 88, 248, 230, 151, 244, 77, 164, 173, 101, 208, 211, 93, 139, 178, 226, 44, 164, 145, 1, 42, 209, 75, 125, 248, 111, 10, 116, 181, 82, 48, 11, 123, 97, 19, 82, 153, 142, 27, 62, 74, 75, 167, 104, 107, 10, 28, 61, 7, 103, 39, 153, 67, 10, 234, 109, 185, 29, 62, 172, 37, 101, 23, 9, 97, 77, 81, 247, 142, 205, 48, 170, ;
